10 10 4

0 478 367 219 476 467 378 155 124 289 
165 0 80 408 114 302 339 75 277 89 
480 151 0 308 286 463 230 263 263 166 
303 62 493 0 410 491 115 335 222 288 
212 83 119 452 0 199 149 359 470 157 
404 495 140 443 231 0 448 251 467 166 
431 230 380 303 239 148 0 51 355 138 
323 396 66 318 315 100 387 0 473 456 
242 87 425 105 441 175 196 384 0 356 
143 341 323 260 478 259 346 487 204 0 

243.25 0 2
243.25 1 2
243.25 2 1
243.25 3 6
243.25 4 7
243.25 5 7
243.25 6 5
243.25 7 3
243.25 8 0
243.25 9 7

